50
219
194
190
242
229
273
249
238
202
267
194
172
194
209
202
177
236
169
166
264
258
180
247
238
223
281
162
204
269
258
193
234
204
212
257
265
266
198
276
231
218
225
226
275
276
249
184
241
199
263
